3	25
64	663	909	571	844	834	910	141	110	987	678	704	66	567	815	250	536	244	708	220	894	385	291	953	109	
752	349	281	42	69	221	430	893	144	120	488	906	269	433	311	183	329	136	26	564	3	340	833	304	712	
762	762	762	
